(declare-const _nu Int)
(assert (let ((a!1 (=> (> _nu 0)
               (exists ((x Int))
                 (let ((a!1 (exists ((__x0 Bool))
                              (let ((a!1 (exists ((y Int))
                                           (and (= y (+ x 1)) (= _nu (- y 1))))))
                                (and (= __x0 (= 0 x))
                                     (or (=> __x0 (= _nu 0))
                                         (=> (not __x0) a!1)))))))
                   (and (> x 0) a!1))))))
  (not a!1)))

(check-sat)
(get-model)